; benchmark generated from python API
(set-info :status unknown)
(declare-fun S_3 () Real)
(declare-fun S_4 () Real)
(declare-fun S_1 () Real)
(declare-fun S_2 () Real)
(declare-fun A_3 () Real)
(declare-fun L_3 () Real)
(declare-fun A_4 () Real)
(declare-fun A_5 () Real)
(declare-fun S_5 () Real)
(declare-fun L_2 () Real)
(declare-fun A_2 () Real)
(declare-fun A_1 () Real)
(declare-fun L_1 () Real)
(declare-fun S_0 () Real)
(declare-fun A_0 () Real)
(declare-fun L_0 () Real)
(assert
 (let ((?x1135 (* (- 1.0) A_0)))
 (let ((?x1019 (* (- 1.0) L_2)))
 (let ((?x1118 (* (- 1.0) A_1)))
 (let ((?x2226 (* 2.0 L_1)))
 (let ((?x1028 (* (- 1.0) L_3)))
 (let ((?x1794 (* (- 1.0) S_5)))
 (let (($x8874 (<= (+ ?x1794 ?x1028 A_3 ?x2226 ?x1118 S_0 ?x1019 ?x1135 A_2) 0.0)))
 (let (($x3024 (<= (+ A_4 (* (- 1.0) A_5)) 0.0)))
 (let ((?x2173 (* (- (/ 1.0 3.0)) S_5)))
 (let ((?x2201 (* (- (/ 2.0 3.0)) A_1)))
 (let (($x2240 (<= (+ (* (/ 5.0 3.0) L_1) ?x2201 ?x2173 S_0 ?x1019 ?x1135 A_2) 0.0)))
 (let (($x2246 (<= (+ (* (- (/ 4.0 3.0)) L_1) (* (/ 4.0 3.0) A_1) ?x2173 L_0 ?x1135) 0.0)))
 (let ((?x1001 (* (- 1.0) L_0)))
 (let ((?x1010 (* (- 1.0) L_1)))
 (let (($x903 (= ?x1010 ?x1001)))
 (let (($x110395 (<= (+ (* (- (/ 1.0 2.0)) A_2) (* (/ 1.0 2.0) L_2) (* (- (/ 1.0 2.0)) S_5) S_3) 0.0)))
 (let (($x4646 (<= (+ ?x1794 A_4 ?x1028) 0.0)))
 (let (($x3413 (<= (+ ?x1010 (* (- 1.0) S_1) A_0) 0.0)))
 (let ((?x1814 (* 2.0 A_3)))
 (let ((?x2719 (* (- 2.0) A_1)))
 (let ((?x1812 (* (- 2.0) L_3)))
 (let (($x40138 (<= (+ ?x1794 A_0 ?x1001 ?x1812 ?x2226 ?x2719 ?x1814) 0.0)))
 (let ((?x36467 (* (/ 1.0 4.0) L_0)))
 (let ((?x29400 (* (- (/ 3.0 4.0)) S_5)))
 (let (($x38769 (<= (+ ?x29400 (* (- (/ 5.0 4.0)) A_0) ?x36467 S_0 L_1 ?x1028 A_3) 0.0)))
 (let ((?x12215 (* (/ 1.0 3.0) A_3)))
 (let ((?x12214 (* (- (/ 1.0 3.0)) L_3)))
 (let ((?x2234 (* (/ 4.0 3.0) L_1)))
 (let ((?x91647 (* (/ 1.0 3.0) S_0)))
 (let ((?x12186 (* (- (/ 2.0 3.0)) L_0)))
 (let ((?x12200 (* (/ 1.0 3.0) A_0)))
 (let (($x100108 (<= (+ ?x12200 ?x12186 ?x91647 ?x2234 ?x12214 ?x1118 ?x12215) 0.0)))
 (let ((?x1838 (* (- 2.0) A_0)))
 (let ((?x1238 (* (- 1.0) A_2)))
 (let (($x52076 (<= (+ ?x1238 L_2 ?x1794 ?x2226 (* 2.0 S_0) ?x1812 ?x1838 ?x1814) 0.0)))
 (let (($x52031 (not $x52076)))
 (let (($x2236 (<= (+ ?x2234 (* (- (/ 1.0 3.0)) A_1) (* (- (/ 2.0 3.0)) S_5) S_0 ?x1028 ?x1135 A_3) 0.0)))
 (let ((?x34139 (* (/ 2.0 3.0) A_4)))
 (let ((?x12224 (* (- (/ 2.0 3.0)) A_0)))
 (let ((?x1795 (* (- 1.0) S_4)))
 (let ((?x45343 (* (- (/ 2.0 3.0)) A_5)))
 (let ((?x2132 (* (/ 2.0 3.0) S_5)))
 (let ((?x2172 (* (/ 1.0 3.0) A_1)))
 (let ((?x2193 (* (/ 1.0 3.0) L_1)))
 (let (($x111620 (<= (+ ?x2193 ?x2172 ?x2132 ?x45343 ?x1795 (* (/ 2.0 3.0) S_0) ?x12224 ?x34139) 0.0)))
 (let ((?x36766 (* (- (/ 1.0 4.0)) L_0)))
 (let ((?x2627 (* (- (/ 1.0 2.0)) A_0)))
 (let ((?x29498 (* (/ 3.0 4.0) S_5)))
 (let ((?x59506 (+ ?x29498 ?x2627 ?x36766 (* (- (/ 3.0 4.0)) A_5) ?x1795 (* (/ 3.0 4.0) S_0) (* (/ 3.0 4.0) L_1) (* (/ 3.0 4.0) A_4))))
 (let (($x62842 (<= ?x59506 0.0)))
 (let (($x29855 (<= (+ S_5 (* (- 1.0) A_5) ?x1795 A_0 ?x1001 L_1 ?x1118 A_4) 0.0)))
 (let ((?x2655 (* (/ 1.0 2.0) A_4)))
 (let ((?x28945 (* (/ 1.0 2.0) S_0)))
 (let ((?x2653 (* (/ 1.0 2.0) L_1)))
 (let ((?x2650 (* (- (/ 1.0 2.0)) A_5)))
 (let ((?x9539 (* (/ 1.0 2.0) S_5)))
 (let ((?x17236 (* (- (/ 1.0 2.0)) L_2)))
 (let ((?x17875 (* (/ 1.0 2.0) A_2)))
 (let (($x28240 (<= (+ ?x17875 ?x17236 ?x9539 ?x2650 ?x1795 ?x2653 ?x28945 ?x2627 ?x2655) 0.0)))
 (let (($x2560 (<= (+ ?x1028 A_3 ?x1795) 0.0)))
 (let ((?x1800 (* 3.0 A_3)))
 (let ((?x4375 (* (- 3.0) A_1)))
 (let ((?x4335 (* 3.0 L_1)))
 (let ((?x1798 (* (- 3.0) L_3)))
 (let ((?x7330 (* (- 2.0) S_4)))
 (let ((?x2823 (* (- 2.0) L_0)))
 (let ((?x1832 (* 2.0 A_0)))
 (let (($x39032 (<= (+ ?x1832 ?x2823 ?x7330 ?x1798 ?x4335 ?x4375 ?x1800) 0.0)))
 (let ((?x1059 (* (- 1.0) A_3)))
 (let ((?x1826 (* (- 2.0) L_2)))
 (let ((?x1828 (* 2.0 A_2)))
 (let (($x25779 (<= (+ ?x1828 ?x1826 L_1 ?x1118 L_3 ?x1059) 0.0)))
 (let (($x25830 (<= (+ (* (- (/ 3.0 2.0)) L_1) (* (/ 3.0 2.0) A_1) (* (- (/ 1.0 2.0)) S_4) L_0 ?x1135) 0.0)))
 (let ((?x2579 (* (/ 1.0 2.0) L_0)))
 (let ((?x9475 (* (- (/ 1.0 2.0)) S_5)))
 (let (($x27388 (<= (+ ?x9475 (* (- (/ 3.0 2.0)) A_0) ?x2579 S_0 L_1 ?x1019 A_2) 0.0)))
 (let (($x21704 (<= (+ ?x1794 ?x1028 A_3 A_2 ?x1019 L_1 ?x1118) 0.0)))
 (let (($x11324 (<= (+ (* (- 2.0) S_5) ?x1812 ?x1814 ?x1838 L_0 S_0 L_1 ?x1019 A_2) 0.0)))
 (let ((?x1805 (* 4.0 A_2)))
 (let ((?x4370 (* (- 4.0) A_1)))
 (let ((?x1803 (* (- 4.0) L_2)))
 (let ((?x4323 (* 4.0 L_1)))
 (let (($x4371 (<= (+ ?x1794 A_0 ?x1001 ?x4323 ?x1803 ?x4370 ?x1805) 0.0)))
 (let (($x35132 (<= (+ (* (- (/ 1.0 4.0)) S_5) (* (- (/ 7.0 4.0)) A_0) (* (/ 3.0 4.0) L_0) S_0 A_1) 0.0)))
 (let (($x22153 (<= (+ (* (- 1.0) A_5) ?x1135 S_0 L_1 A_4) 0.0)))
 (let (($x17580 (<= (+ ?x1794 ?x1028 A_3 ?x2627 ?x2579 (* (/ 1.0 2.0) S_2)) 0.0)))
 (let ((?x12203 (* (/ 1.0 3.0) L_0)))
 (let ((?x12159 (* (- (/ 1.0 3.0)) A_0)))
 (let (($x12221 (<= (+ (* (/ 2.0 3.0) L_3) (* (- (/ 2.0 3.0)) A_3) ?x12159 ?x12203 S_2) 0.0)))
 (let (($x2199 (<= (+ ?x1010 A_1 (* (- 1.0) S_2)) 0.0)))
 (let ((?x6998 (* 2.0 A_4)))
 (let ((?x7403 (* (- 2.0) A_5)))
 (let (($x243377 (or $x903 $x3024 $x22153 (<= (+ ?x1238 L_2 S_5 ?x7403 ?x1832 ?x2823 ?x2226 ?x2719 ?x6998) 0.0))))
 (let (($x1864 (<= (+ A_0 ?x1001 L_1 L_2 ?x1028 ?x1118 ?x1238 A_3) 0.0)))
 (let (($x47735 (<= (+ ?x2627 ?x2579 (* (- (/ 3.0 2.0)) L_2) L_3 (* (/ 3.0 2.0) A_2) ?x1059) 0.0)))
 (let (($x5712 (<= (+ ?x1010 A_1 L_3 L_0 ?x1019 ?x1135 A_2 ?x1059) 0.0)))
 (let (($x5692 (<= (+ ?x1010 A_1 ?x1795 ?x1812 (* 2.0 L_2) (* (- 2.0) A_2) ?x1814) 0.0)))
 (let ((?x2652 (* (- (/ 1.0 2.0)) L_0)))
 (let ((?x1297 (* (- 1.0) A_5)))
 (let ((?x135634 (+ S_5 L_3 ?x1059 ?x1297 ?x2627 (* (- (/ 1.0 2.0)) S_3) ?x2652 S_0 L_1 A_4)))
 (let (($x140728 (<= ?x135634 0.0)))
 (let (($x86016 (<= (+ S_5 L_3 ?x1059 ?x1297 A_1 (* (- 1.0) S_3) S_0 ?x1135 A_4) 0.0)))
 (let (($x4312 (<= (+ A_0 ?x1001 (* (- 1.0) S_3) ?x2226 ?x1826 ?x2719 ?x1828) 0.0)))
 (let (($x2659 (<= (+ A_2 ?x1019 (* (- 1.0) S_3)) 0.0)))
 (let ((?x1823 (* (- 1.0) S_2)))
 (let ((?x2651 (* (/ 1.0 2.0) A_0)))
 (let ((?x17351 (* (/ 1.0 2.0) L_2)))
 (let ((?x14386 (* (- (/ 1.0 2.0)) A_2)))
 (let (($x29807 (<= (+ ?x1238 L_2 S_5 ?x1297 ?x1832 ?x1823 ?x2823 L_1 ?x1118 A_4) 0.0)))
 (let (($x229504 (or $x903 $x2199 $x29807 (<= (+ ?x14386 ?x17351 ?x9539 ?x2650 ?x2651 ?x1823 ?x1001 ?x28945 ?x2653 ?x2655) 0.0))))
 (let (($x4407 (<= (+ A_0 ?x1001 ?x2226 ?x1019 ?x2719 A_2) 0.0)))
 (let (($x4329 (not $x4407)))
 (let (($x2580 (<= (+ S_5 L_3 ?x1059 ?x1297 A_0 ?x1001 L_1 ?x1118 A_4) 0.0)))
 (let (($x62986 (<= (+ ?x9539 ?x2652 ?x2650 (* (- 1.0) S_3) ?x28945 ?x2653 ?x2655) 0.0)))
 (let ((?x2200 (* (/ 2.0 3.0) L_1)))
 (let ((?x1809 (* (- 1.0) S_3)))
 (let (($x521476 (or $x903 $x2659 $x4329 (<= (+ ?x2132 A_0 ?x1001 ?x45343 ?x1809 ?x2200 ?x2201 ?x34139) 0.0) $x62986)))
 (let (($x29143 (<= (+ ?x9475 ?x2627 ?x2579 S_2) 0.0)))
 (let (($x9325 (<= (+ ?x1794 (* (- (/ 4.0 3.0)) L_3) (* (/ 4.0 3.0) A_3) ?x12159 ?x12203) 0.0)))
 (let ((?x36846 (* (/ 1.0 4.0) A_4)))
 (let ((?x28701 (* (/ 1.0 4.0) L_1)))
 (let ((?x62288 (* (/ 1.0 4.0) S_0)))
 (let ((?x62463 (* (- (/ 1.0 4.0)) A_5)))
 (let ((?x36465 (* (- (/ 3.0 4.0)) L_0)))
 (let ((?x28523 (* (/ 1.0 4.0) S_5)))
 (let (($x18502 (<= (+ ?x1135 ?x1823 S_0 A_1) 0.0)))
 (let (($x18578 (not $x18502)))
 (let (($x221235 (or $x903 $x2199 $x18578 (<= (+ ?x28523 ?x2651 ?x36465 ?x62463 ?x1823 ?x62288 ?x28701 ?x36846) 0.0))))
 (let ((?x33645 (* (/ 4.0 3.0) A_4)))
 (let ((?x2291 (* (- (/ 4.0 3.0)) A_1)))
 (let ((?x62673 (* (- (/ 4.0 3.0)) A_5)))
 (let ((?x2190 (* (/ 1.0 3.0) S_5)))
 (let (($x215223 (or $x903 $x3024 $x35132 (<= (+ ?x2190 A_0 ?x1001 ?x62673 ?x2234 ?x2291 ?x33645) 0.0))))
 (let ((?x1829 (* (- 2.0) A_3)))
 (let ((?x1827 (* 2.0 L_3)))
 (let ((?x7013 (* 2.0 S_5)))
 (let (($x96895 (<= (+ ?x7013 ?x1827 ?x1829 ?x7403 ?x1001 S_0 L_1 L_2 ?x1238 ?x6998) 0.0)))
 (let (($x9578 (<= (+ S_5 L_3 ?x1059 ?x1010 A_1 L_2 ?x1238 A_4 ?x1297) 0.0)))
 (let (($x2211 (<= (+ ?x1010 L_2) 0.0)))
 (let (($x21734 (<= (+ ?x1238 L_2 (* (- 2.0) L_1) (* 2.0 A_1) L_0 ?x1135) 0.0)))
 (let ((?x1820 (* (- 3.0) A_3)))
 (let ((?x4354 (* 3.0 A_1)))
 (let ((?x1818 (* 3.0 L_3)))
 (let ((?x4317 (* (- 3.0) L_1)))
 (let ((?x10197 (+ (* (/ 6.0 5.0) S_5) (* (- (/ 6.0 5.0)) A_0) (* (/ 6.0 5.0) L_0) ?x4317 ?x1818 ?x4354 ?x1820)))
 (let (($x10198 (<= ?x10197 0.0)))
 (let (($x6957 (<= (+ L_3 ?x1019) 0.0)))
 (let ((?x1813 (* (- 2.0) A_2)))
 (let ((?x1810 (* 2.0 L_2)))
 (let (($x98842 (<= (+ ?x7013 ?x1827 ?x1829 ?x7403 A_0 ?x1001 S_2 ?x1810 ?x1813 ?x6998) 0.0)))
 (let (($x220087 (or $x903 $x2199 $x2580 (<= (+ S_5 L_3 ?x1059 ?x1297 ?x1823 ?x1001 S_0 L_1 A_4) 0.0))))
 (let ((?x11326 (* 2.0 S_4)))
 (let ((?x1806 (* (- 4.0) A_3)))
 (let ((?x1804 (* 4.0 L_3)))
 (let (($x97086 (<= (+ ?x7013 ?x1804 ?x1806 ?x7403 ?x11326 ?x1832 ?x2823 ?x1810 ?x1813 ?x6998) 0.0)))
 (let ((?x17947 (* (- (/ 1.0 2.0)) S_4)))
 (let ((?x2654 (* (- (/ 1.0 2.0)) A_1)))
 (let ((?x2714 (* (/ 3.0 2.0) L_1)))
 (let (($x11364 (<= (+ ?x1001 S_0 ?x4335 ?x1019 ?x2719 A_2) 0.0)))
 (let (($x2103 (not (<= (+ L_1 S_0 ?x1135) 0.0))))
 (let (($x513607 (or $x903 $x2103 $x2560 $x11364 (<= (+ ?x2714 ?x2654 ?x17947 S_0 ?x1019 ?x1135 A_2) 0.0))))
 (let (($x226388 (or $x2211 $x2246 (not (<= (+ ?x9539 ?x2651 ?x2652 L_2 ?x1238) 0.0)) (<= (+ S_5 A_0 ?x1001 ?x7403 ?x1810 ?x1813 ?x6998) 0.0))))
 (let (($x4405 (<= (+ ?x1832 ?x1001 (* (- 1.0) S_1) L_1 ?x1019 ?x2719 A_2) 0.0)))
 (let (($x527371 (or $x3413 $x4646 $x17580 (not (<= (+ ?x1028 A_3 ?x2651 ?x2652 (* (- (/ 3.0 2.0)) S_2)) 0.0)))))
 (let ((?x2319 (* (- 2.0) L_1)))
 (let ((?x7473 (* (- 2.0) S_1)))
 (let ((?x1817 (* (- 3.0) L_2)))
 (let ((?x1819 (* 3.0 A_2)))
 (let ((?x1833 (* (- 1.0) S_1)))
 (let ((?x30812 (* (/ 2.0 3.0) S_4)))
 (let ((?x2243 (* (- (/ 4.0 3.0)) L_1)))
 (let (($x46614 (<= (+ ?x2243 ?x2172 ?x30812 ?x1833 L_3 A_0 ?x1059) 0.0)))
 (let (($x39521 (<= (+ (* (/ 5.0 4.0) A_0) ?x36766 (* (/ 3.0 4.0) S_4) ?x1833 L_3 ?x1010 ?x1059) 0.0)))
 (let (($x221330 (or $x3413 $x6957 $x39521 $x46614 (<= (+ ?x1819 ?x1817 A_0 L_0 ?x7473 ?x2319 ?x1827 ?x1829) 0.0))))
 (let (($x34641 (<= (+ (* (- (/ 3.0 2.0)) L_1) (* (/ 1.0 2.0) A_1) ?x9539 ?x1833 L_3 A_0 ?x1059) 0.0)))
 (let ((?x24720 (* (- (/ 2.0 3.0)) L_2)))
 (let ((?x26691 (* (/ 2.0 3.0) A_2)))
 (let ((?x7377 (* (- (/ 2.0 5.0)) L_0)))
 (let ((?x10143 (* (/ 7.0 5.0) A_0)))
 (let ((?x10129 (* (/ 3.0 5.0) S_5)))
 (let (($x497609 (or $x3413 $x6957 (<= (+ ?x10129 ?x10143 ?x7377 ?x1833 ?x1010 L_3 ?x1059) 0.0) (<= (+ ?x26691 ?x24720 ?x2190 ?x1010 ?x1833 L_3 A_0 ?x1059) 0.0) $x34641)))
 (let (($x49231 (<= (+ (* (/ 3.0 4.0) A_0) ?x36465 (* (/ 1.0 4.0) S_4) L_1 ?x1118) 0.0)))
 (let (($x12683 (<= (+ ?x17875 ?x17236 (* (/ 1.0 2.0) S_4) ?x1010 ?x1833 L_3 A_0 ?x1059) 0.0)))
 (let ((?x17000 (* 6.0 A_4)))
 (let ((?x20249 (* (- 9.0) A_3)))
 (let ((?x20254 (* 9.0 L_3)))
 (let ((?x16876 (* (- 6.0) A_5)))
 (let ((?x19274 (* 6.0 S_5)))
 (let (($x20260 (<= (+ ?x19274 ?x16876 ?x4317 ?x20254 ?x4354 ?x20249 ?x17000) 0.0)))
 (let ((?x6991 (* 4.0 A_4)))
 (let ((?x1781 (* (- 4.0) A_2)))
 (let ((?x1778 (* 4.0 L_2)))
 (let ((?x11696 (* (- 4.0) L_0)))
 (let ((?x11365 (* 4.0 A_0)))
 (let ((?x20333 (* (- 4.0) A_5)))
 (let ((?x17824 (* (- 6.0) A_3)))
 (let ((?x20188 (* 6.0 L_3)))
 (let (($x73394 (<= (+ ?x19274 ?x20188 ?x17824 ?x20333 ?x11365 ?x11696 ?x1778 ?x1781 ?x6991) 0.0)))
 (let ((?x1799 (* (- 3.0) A_2)))
 (let ((?x4380 (* 2.0 A_1)))
 (let ((?x1796 (* 3.0 L_2)))
 (let (($x4879 (<= (+ S_5 ?x1297 ?x2319 ?x1796 ?x4380 ?x1799 A_4) 0.0)))
 (let (($x57702 (<= (+ S_5 (* (- 1.0) A_4) A_2 ?x1019 A_0 ?x1833 ?x1010 ?x1827 ?x1059) 0.0)))
 (let (($x47194 (<= (+ (* 3.0 S_5) (* (- 3.0) A_4) ?x1832 ?x1001 ?x1833 ?x1010 ?x1804 ?x1059) 0.0)))
 (let (($x34000 (<= (+ ?x7013 (* (- 2.0) A_4) ?x2319 A_1 ?x1833 ?x1818 A_0 ?x1059) 0.0)))
 (let ((?x17999 (* (- (/ 3.0 2.0)) A_2)))
 (let ((?x17799 (* (/ 3.0 2.0) L_2)))
 (let (($x29797 (<= (+ ?x1238 L_2 S_5 ?x1297 ?x1832 ?x2823 ?x2226 ?x2719 A_4) 0.0)))
 (let (($x511271 (or $x2211 $x3413 $x29797 (<= (+ ?x2319 A_1 ?x9539 ?x2650 ?x1833 ?x17799 A_0 ?x17999 ?x2655) 0.0))))
 (let (($x47190 (<= (+ (* 3.0 S_5) (* (- 3.0) A_4) ?x1795 A_0 ?x1001 ?x1818) 0.0)))
 (let (($x135501 (or $x2560 (<= (+ ?x7013 (* (- 2.0) A_4) ?x1010 A_1 ?x1795 ?x1827) 0.0) $x47190 (<= (+ S_5 (* (- 1.0) A_4) A_2 ?x1019 ?x1795 L_3) 0.0))))
 (let (($x44787 (<= (+ A_2 ?x1019 S_5 ?x1297 ?x1010 ?x1833 ?x1827 A_0 ?x1829 A_4) 0.0)))
 (let ((?x6995 (* 3.0 A_4)))
 (let ((?x10158 (* (- 3.0) A_5)))
 (let ((?x7018 (* 3.0 S_5)))
 (let (($x254221 (or $x3413 $x6957 (<= (+ ?x7018 ?x1832 ?x1001 ?x10158 ?x1833 ?x1010 ?x1804 ?x1806 ?x6995) 0.0) (<= (+ ?x2319 A_1 ?x7013 ?x7403 ?x1833 ?x1818 A_0 ?x1820 ?x6998) 0.0) $x44787)))
 (let ((?x8688 (* (- 3.0) S_3)))
 (let ((?x11435 (* (- 3.0) L_0)))
 (let ((?x8493 (* 3.0 A_0)))
 (let (($x216839 (or $x2659 $x6957 (<= (+ ?x19274 ?x8493 ?x11435 ?x16876 ?x8688 ?x20188 ?x17824 ?x17000) 0.0) (<= (+ ?x2319 ?x4380 ?x7013 ?x7403 (* (- 2.0) S_3) ?x1827 ?x1829 ?x6998) 0.0))))
 (let ((?x18889 (* 12.0 A_4)))
 (let ((?x20205 (* (- 12.0) A_3)))
 (let ((?x20204 (* 12.0 L_3)))
 (let ((?x19082 (* (- 12.0) A_5)))
 (let ((?x19348 (* 9.0 S_5)))
 (let (($x218617 (or $x3024 $x6957 (<= (+ ?x19348 ?x8493 ?x11435 ?x19082 ?x20204 ?x20205 ?x18889) 0.0) (<= (+ ?x2319 ?x4380 (* 4.0 S_5) ?x16876 ?x20188 ?x17824 ?x17000) 0.0) (<= (+ A_2 ?x1019 S_5 ?x7403 ?x1827 ?x1829 ?x6998) 0.0))))
 (let (($x8504 (<= (+ ?x4317 ?x4380 ?x1833 L_0 L_2 ?x1238) 0.0)))
 (let (($x499677 (or $x2211 $x3413 $x8504 (<= (+ ?x7013 (* (- 2.0) A_4) ?x1832 ?x1001 ?x1833 ?x1010 ?x1796 ?x1238) 0.0))))
 (let (($x31337 (<= (+ (* (- (/ 7.0 4.0)) L_1) (* (/ 3.0 4.0) A_1) ?x28523 ?x1833 L_2 A_0 ?x1238) 0.0)))
 (let ((?x7338 (* (- (/ 3.0 5.0)) L_0)))
 (let ((?x7349 (* (/ 8.0 5.0) A_0)))
 (let ((?x7334 (* (/ 2.0 5.0) S_5)))
 (let (($x224309 (or $x2211 $x3413 (<= (+ ?x7334 ?x7349 ?x7338 ?x1833 L_2 ?x1010 ?x1238) 0.0) $x31337)))
 (let (($x220305 (or $x2211 $x2560 $x25830 (<= (+ ?x7018 ?x1832 ?x2823 ?x10158 ?x7330 ?x1796 ?x1799 ?x6995) 0.0))))
 (let (($x97626 (<= (+ ?x7013 ?x1827 ?x1829 ?x7403 (* 2.0 S_1) ?x1810 ?x1813 ?x6998) 0.0)))
 (let (($x219033 (or $x2211 $x3413 $x8504 (<= (+ S_5 ?x1832 ?x1001 ?x1297 ?x1833 ?x1010 ?x1810 ?x1813 A_4) 0.0))))
 (let (($x7391 (<= (+ ?x7334 (* (- (/ 2.0 5.0)) A_0) (* (/ 2.0 5.0) L_0) ?x1810 ?x2319 ?x4380 ?x1813) 0.0)))
 (let (($x90898 (<= (+ ?x9539 (* (/ 1.0 2.0) L_3) (* (- (/ 1.0 2.0)) A_3) A_0 ?x1001 L_1 ?x1118) 0.0)))
 (let ((?x9498 (* (- (/ 1.0 2.0)) A_3)))
 (let ((?x9529 (* (/ 1.0 2.0) L_3)))
 (let (($x243564 (or $x2211 $x3413 (<= (+ ?x9539 ?x9529 ?x9498 ?x2319 A_1 ?x1833 L_2 A_0 ?x1238) 0.0) $x90898)))
 (let (($x50869 (<= (+ ?x1010 A_1 ?x9539 (* (- (/ 3.0 2.0)) A_5) ?x17799 ?x17999 (* (/ 3.0 2.0) A_4)) 0.0)))
 (let (($x5134 (<= (+ S_5 (* (- 1.0) A_4) ?x1827 ?x1019 A_2 ?x1059) 0.0)))
 (let ((?x42166 (* (/ 1.0 3.0) S_4)))
 (let ((?x2189 (* (/ 2.0 3.0) A_1)))
 (let ((?x2315 (* (- (/ 5.0 3.0)) L_1)))
 (let (($x522027 (or $x2211 $x3413 $x49231 (<= (+ ?x2315 ?x2189 ?x42166 ?x1833 L_2 A_0 ?x1238) 0.0))))
 (let (($x110347 (<= (+ ?x17875 ?x17236 ?x9475 ?x1135 L_0 S_1) 0.0)))
 (let (($x35905 (<= (+ (* (- (/ 1.0 4.0)) S_5) (* (- (/ 3.0 4.0)) A_0) (* (/ 3.0 4.0) L_0) S_1) 0.0)))
 (let ((?x7365 (* 2.0 S_1)))
 (let ((?x2672 (* 2.0 L_0)))
 (let ((?x6994 (* (- 2.0) S_5)))
 (let (($x11661 (<= (+ ?x6994 ?x1812 ?x1814 ?x1838 ?x2672 ?x7365) 0.0)))
 (let (($x498959 (or $x2199 $x6957 (<= (+ S_5 ?x1297 A_0 ?x1823 ?x1001 L_3 ?x1059 A_4) 0.0))))
 (let ((?x21000 (* (/ 1.0 2.0) S_3)))
 (let ((?x2588 (* (/ 1.0 2.0) A_1)))
 (let ((?x21216 (* (- (/ 3.0 2.0)) L_1)))
 (let (($x249139 (or $x2211 $x3413 (<= (+ ?x21216 ?x2588 ?x21000 ?x1833 L_2 A_0 ?x1238) 0.0) (<= (+ (* (/ 2.0 3.0) A_0) ?x12186 (* (/ 1.0 3.0) S_3) L_1 ?x1118) 0.0))))
 (let (($x237752 (or $x903 $x2560 $x4646 (<= (+ ?x12214 ?x12215 (* (/ 2.0 3.0) A_0) ?x12186 L_1 ?x1118) 0.0) $x27388)))
 (let (($x4350 (<= (+ ?x1135 L_0 S_4 (* (- 4.0) L_1) ?x1778 (* 4.0 A_1) ?x1781) 0.0)))
 (let (($x235339 (or $x3413 $x4350 $x6957 $x12683 (<= (+ ?x2651 ?x2652 (* (/ 1.0 2.0) S_4) L_2 ?x1238) 0.0))))
 (let (($x500270 (or $x2211 $x3413 $x8504 (<= (+ ?x1827 ?x1829 ?x11326 ?x1832 ?x1001 ?x1833 ?x1010 L_2 ?x1238) 0.0))))
 (let (($x68423 (<= (+ ?x2627 ?x2579 (* (/ 1.0 2.0) S_4) ?x1810 ?x2319 ?x4380 ?x1813) 0.0)))
 (let (($x37632 (<= (+ ?x1135 L_0 S_4 ?x1827 ?x2319 ?x4380 ?x1829) 0.0)))
 (let (($x33946 (<= (+ ?x7013 (* (- 2.0) A_4) ?x1010 A_1 ?x1818 ?x1059) 0.0)))
 (let (($x69901 (<= (+ (* (/ 3.0 2.0) A_0) ?x2652 (* (/ 1.0 2.0) S_4) ?x1833 ?x1010 L_2 ?x1238) 0.0)))
 (let (($x64980 (<= (+ S_5 ?x1832 ?x2823 ?x1297 (* (- 2.0) S_2) L_2 ?x1238 A_4) 0.0)))
 (let ((?x35034 (* (/ 1.0 3.0) A_4)))
 (let ((?x48509 (* (- (/ 1.0 3.0)) A_5)))
 (let ((?x2171 (* (- (/ 1.0 3.0)) L_1)))
 (let (($x500372 (or $x903 $x2659 $x4312 (<= (+ ?x28523 ?x2651 ?x36465 ?x62463 ?x62288 (* (/ 5.0 4.0) L_1) ?x1118 ?x36846) 0.0) (<= (+ ?x2171 ?x2189 ?x2190 ?x48509 ?x1809 ?x91647 ?x12159 ?x35034) 0.0))))
 (let (($x65008 (<= (+ ?x7018 ?x1832 ?x2823 ?x10158 ?x1796 ?x1827 ?x1799 ?x1829 ?x6995) 0.0)))
 (let (($x259301 (or $x2211 $x3413 $x8504 (<= (+ S_5 L_3 ?x1059 ?x1832 ?x1001 ?x1833 ?x1010 L_2 ?x1238) 0.0))))
 (let (($x5086 (<= (+ S_5 (* (- 1.0) A_4) L_3 ?x1010 L_2 A_1 ?x1238) 0.0)))
 (let (($x205592 (or $x2560 (<= (+ ?x10129 (* (/ 2.0 5.0) A_0) ?x7377 ?x1795) 0.0) (<= (+ (* (- (/ 1.0 2.0)) L_1) ?x2588 ?x9539 ?x1795) 0.0) (<= (+ ?x26691 ?x24720 ?x2190 ?x1795) 0.0))))
 (let (($x8696 (<= (+ ?x2319 ?x4380 ?x1809 L_0 ?x1135) 0.0)))
 (let (($x23896 (<= (+ ?x1794 ?x1028 A_3 L_1 ?x1118 S_2) 0.0)))
 (let (($x2203 (<= (+ ?x2200 ?x2201 ?x2173 S_2) 0.0)))
 (let (($x21705 (<= (+ L_3 ?x1059 S_4 ?x1238 L_2 ?x1010 A_1) 0.0)))
 (let (($x34012 (<= (+ ?x7013 (* (- 2.0) A_4) ?x2319 ?x4380 (* (- 2.0) S_3) ?x1827) 0.0)))
 (let (($x132079 (or $x2659 $x34012 (<= (+ ?x19274 (* (- 6.0) A_4) ?x8493 ?x11435 ?x8688 ?x20188) 0.0))))
 (let (($x216829 (or $x2211 $x2560 $x29797 (<= (+ ?x1010 A_1 S_5 ?x1297 ?x1795 L_2 ?x1238 A_4) 0.0))))
 (let (($x9580 (<= (+ ?x9475 (* (- (/ 1.0 2.0)) L_3) (* (/ 1.0 2.0) A_3) ?x1010 A_1 L_0 ?x1135) 0.0)))
 (let (($x54036 (<= (+ A_2 ?x1019 S_5 ?x1297 ?x1795 L_3 ?x1059 A_4) 0.0)))
 (let (($x220407 (or $x2560 $x2580 $x6957 (<= (+ ?x1010 A_1 ?x7013 ?x7403 ?x1795 ?x1827 ?x1829 ?x6998) 0.0) $x54036)))
 (let (($x499092 (or $x2560 $x6957 (<= (+ ?x7018 A_0 ?x1001 ?x10158 ?x1795 ?x1818 ?x1820 ?x6995) 0.0) $x25830 $x54036)))
 (let (($x4384 (<= (+ ?x1135 L_0 S_1 ?x1010 L_2 A_1 ?x1238) 0.0)))
 (let (($x217150 (or $x2211 $x2659 $x29797 (<= (+ ?x1010 A_1 ?x9539 ?x2650 ?x1809 ?x17351 ?x14386 ?x2655) 0.0))))
 (let ((?x24073 (* (/ 2.0 3.0) S_3)))
 (let ((?x12137 (* (- (/ 1.0 3.0)) L_0)))
 (let ((?x12328 (* (/ 4.0 3.0) A_0)))
 (let (($x216896 (or $x2211 $x3413 $x8504 (<= (+ ?x12328 ?x12137 ?x24073 ?x1833 ?x1010 L_2 ?x1238) 0.0))))
 (let (($x24168 (<= (+ ?x12224 (* (/ 2.0 3.0) L_0) ?x24073 ?x2319 ?x1810 ?x4380 ?x1813) 0.0)))
 (let (($x45234 (<= (+ (* (- (/ 2.0 3.0)) S_4) (* (- (/ 4.0 3.0)) A_0) ?x12203 S_0 L_1 ?x1019 A_2) 0.0)))
 (let (($x4376 (<= (+ A_0 ?x1001 ?x1795 ?x4335 ?x1817 ?x4375 ?x1819) 0.0)))
 (let ((?x1986 (* (- 5.0) A_2)))
 (let ((?x1988 (* 5.0 L_2)))
 (let (($x4301 (<= (+ S_5 ?x1135 L_0 (* (- 5.0) L_1) ?x1988 (* 5.0 A_1) ?x1986) 0.0)))
 (let (($x25879 (<= (+ ?x2627 ?x2652 (* (- (/ 3.0 2.0)) S_3) S_0 L_1 ?x1028 A_3) 0.0)))
 (let (($x237061 (or $x903 $x2659 $x4312 (<= (+ A_1 (* (- 2.0) S_3) S_0 ?x1028 ?x1135 A_3) 0.0) $x25879)))
 (let (($x239156 (or $x903 $x2199 (<= (+ A_0 ?x2823 (* (- 3.0) S_2) S_0 ?x1028 L_1 A_3) 0.0) $x18578)))
 (let (($x17419 (<= (+ L_3 ?x1059 S_4 A_0 ?x1001 L_1 ?x1118) 0.0)))
 (let (($x521842 (or $x2211 $x3413 $x17419 (<= (+ L_3 ?x1059 S_4 ?x2319 A_1 ?x1833 L_2 A_0 ?x1238) 0.0))))
 (let (($x8471 (<= (+ ?x1010 S_2 ?x1833 L_2 A_0 ?x1238) 0.0)))
 (let (($x245236 (or $x6957 $x8471 (<= (+ ?x2651 ?x2579 (* (/ 3.0 2.0) S_2) ?x1833 L_3 ?x1010 ?x1059) 0.0))))
 (let (($x33764 (<= (+ ?x1838 ?x2672 ?x7365 L_3 ?x1010 A_1 ?x1059) 0.0)))
 (let (($x526009 (or $x2560 (<= (+ ?x1838 ?x2672 ?x1795 (* 3.0 S_1)) 0.0) (<= (+ A_2 ?x1019 ?x1795 ?x1135 L_0 S_1) 0.0))))
 (let (($x253970 (or $x903 $x1864 $x2199 (<= (+ ?x1238 L_2 ?x1823 ?x1001 S_0 L_1 ?x1028 A_3) 0.0))))
 (let (($x228812 (or $x903 $x2659 $x8696 $x25879 (<= (+ A_0 ?x1001 ?x1809 ?x1028 L_1 ?x1118 A_3) 0.0))))
 (let (($x1840 (<= (+ ?x1838 L_0 S_0 L_1 ?x1817 ?x1827 ?x1819 ?x1829) 0.0)))
 (let (($x6985 (<= (+ S_5 (* (- 1.0) A_4) ?x2319 A_1 ?x1833 ?x1810 A_0 ?x1238) 0.0)))
 (let (($x235324 (or $x2211 $x3413 $x6985 (<= (+ S_5 (* (- 1.0) A_4) L_2 A_0 ?x1001 L_1 ?x1118) 0.0))))
 (let (($x257614 (or $x6957 $x8471 (<= (+ ?x1118 (* 2.0 S_2) ?x1833 L_3 A_0 ?x1059) 0.0))))
 (let (($x5646 (<= (+ ?x2226 ?x1118 S_0 L_3 ?x1826 ?x1135 ?x1828 ?x1059) 0.0)))
 (let (($x40235 (<= (+ ?x1135 L_0 S_2 L_3 ?x1010 A_1 ?x1059) 0.0)))
 (let (($x22970 (<= (+ ?x1838 ?x2672 (* 2.0 S_3) ?x1818 ?x4317 ?x4354 ?x1820) 0.0)))
 (let (($x235388 (or $x903 $x2199 $x18502 (<= (+ ?x1028 A_3 ?x1832 (* (- 2.0) S_2) ?x2823 L_1 ?x1118) 0.0))))
 (let (($x62335 (<= (+ ?x2190 A_0 ?x1001 ?x48509 ?x1823 ?x2193 (* (- (/ 1.0 3.0)) A_1) ?x35034) 0.0)))
 (let (($x235690 (or $x2211 $x2659 $x8696 (<= (+ S_5 A_0 ?x1001 ?x1297 ?x1809 L_2 ?x1238 A_4) 0.0))))
 (let (($x81740 (<= (+ (* (- (/ 1.0 3.0)) A_2) (* (/ 1.0 3.0) L_2) ?x2190 A_0 ?x1823 ?x1001) 0.0)))
 (let (($x5697 (<= (+ L_1 ?x1118 S_2 L_3 ?x1019 A_2 ?x1059) 0.0)))
 (let (($x53076 (or $x2199 (<= (+ S_5 L_3 ?x1059 ?x1832 ?x2823 (* (- 2.0) S_2)) 0.0))))
 (let (($x1837 (<= (+ ?x1135 L_0 S_1 ?x1019 L_3 A_2 ?x1059) 0.0)))
 (let (($x2197 (<= (+ ?x2193 (* (- (/ 1.0 3.0)) A_1) (* (- (/ 2.0 3.0)) S_5) S_3) 0.0)))
 (let (($x13211 (<= (+ ?x1795 ?x1135 S_0 ?x1028 L_1 A_3) 0.0)))
 (let (($x60229 (or $x2199 (<= (+ S_5 (* (- 1.0) A_4) A_0 ?x1823 ?x1001 L_3) 0.0))))
 (let (($x57313 (or $x2199 (<= (+ ?x14386 ?x17351 (* (/ 1.0 2.0) S_4) A_0 ?x1823 ?x1001) 0.0))))
 (let (($x5691 (<= (+ ?x1010 A_1 ?x1794 ?x1798 ?x1796 ?x1799 ?x1800) 0.0)))
 (let (($x1668 (<= (+ ?x1794 A_0 ?x1001 ?x1778 (* (- 4.0) L_3) ?x1781 (* 4.0 A_3)) 0.0)))
 (let ((?x1762 (* 5.0 A_2)))
 (let ((?x1751 (* (- 5.0) L_2)))
 (let (($x1232 (<= (+ S_5 ?x1135 L_0 ?x1751 (* 5.0 L_3) ?x1762 (* (- 5.0) A_3)) 0.0)))
 (let (($x43067 (<= (+ ?x2171 ?x2172 ?x2173 L_2 ?x1028 ?x1238 A_3) 0.0)))
 (let (($x503340 (or $x1668 $x2211 $x4646 $x6957 (not (<= (+ L_3 S_3 ?x1238) 0.0)) $x43067)))
 (let (($x6105 (<= (+ S_5 ?x1297 ?x1019 ?x1827 A_2 ?x1829 A_4) 0.0)))
 (let (($x34736 (or $x2659 (<= (+ ?x7334 (* (/ 3.0 5.0) A_0) ?x7338 ?x1809) 0.0) (<= (+ (* (- (/ 3.0 4.0)) L_1) (* (/ 3.0 4.0) A_1) ?x28523 ?x1809) 0.0))))
 (let (($x190991 (or $x903 $x2199 (<= (+ A_0 ?x1001 ?x1823 L_1 ?x1019 ?x1118 A_2) 0.0) (<= (+ ?x1001 (* (- 2.0) S_2) S_0 L_1 ?x1019 A_2) 0.0))))
 (let (($x190016 (or $x903 $x2659 $x4312 (<= (+ L_1 ?x1809 S_0 ?x1019 ?x1135 A_2) 0.0))))
 (let (($x261697 (or (<= (+ A_0 ?x1001 ?x1795 ?x1796 ?x1798 ?x1799 ?x1800) 0.0) $x2211 $x2560 $x5692)))
 (let (($x226805 (or (<= (+ A_0 ?x1001 ?x1823 L_2 ?x1028 ?x1238 A_3) 0.0) $x2199 $x2211)))
 (let (($x9672 (or $x2199 (<= (+ ?x7334 ?x7349 (* (- (/ 8.0 5.0)) L_0) (* (- 2.0) S_2)) 0.0))))
 (let (($x256833 (or $x1864 $x2211 $x3413 (<= (+ ?x2319 A_1 ?x1833 ?x1028 ?x1810 A_0 ?x1813 A_3) 0.0))))
 (let (($x255002 (or $x1864 $x2211 $x2659 (<= (+ ?x1010 A_1 ?x1809 ?x1028 L_2 ?x1238 A_3) 0.0))))
 (let (($x1660 (not $x1864)))
 (let (($x261145 (or $x1660 (<= (+ A_0 ?x1001 ?x1809 ?x1810 ?x1812 ?x1813 ?x1814) 0.0) $x2211 $x2659)))
 (let (($x516057 (or $x1660 (<= (+ ?x1832 ?x1001 ?x1833 ?x1010 ?x1796 ?x1812 ?x1799 ?x1814) 0.0) $x2211 $x3413)))
 (and (<= ?x1010 ?x1001) (<= ?x1028 ?x1019) (<= ?x1019 ?x1010) (or (<= (+ ?x1010 ?x1810 ?x1028 A_1 ?x1813 A_3) 0.0) $x2199 $x2211) $x516057 $x261145 $x255002 $x256833 (or $x2211 $x8471) (or (<= (+ ?x1135 L_0 S_4 ?x1803 ?x1804 ?x1805 ?x1806) 0.0) $x3413 $x6957) (or $x1232 $x3413 $x6957) (or $x1232 $x2560 $x6957) $x9672 (or (<= (+ ?x1135 L_0 S_4 ?x1803 ?x1804 ?x1805 ?x1806) 0.0) $x2659 $x6957) (or (<= (+ ?x1135 L_0 S_3 ?x1817 ?x1818 ?x1819 ?x1820) 0.0) $x2560 $x6957) (or (<= (+ ?x1135 L_0 S_2 ?x1826 ?x1827 ?x1828 ?x1829) 0.0) $x2560 $x6957) (or $x1837 $x2560 $x6957) $x226805 (or $x1232 $x2199 $x6957) (or $x1837 $x2199 $x6957) (or (<= (+ ?x1135 L_0 S_4 ?x1803 ?x1804 ?x1805 ?x1806) 0.0) $x2199 $x6957) (or (<= (+ ?x1010 ?x1810 ?x1028 A_1 ?x1813 A_3) 0.0) $x2211 $x2659) (or $x3024 (<= (+ L_1 ?x1118 S_4 ?x1818 ?x1817 ?x1819 ?x1820) 0.0) $x6957) (or $x2659 (<= (+ L_1 ?x1118 S_4 ?x1818 ?x1817 ?x1819 ?x1820) 0.0) $x6957) (or $x3413 (<= (+ L_1 ?x1118 S_4 ?x1818 ?x1817 ?x1819 ?x1820) 0.0) $x6957) (or $x2199 (<= (+ L_3 ?x1059 S_4 A_0 ?x1001 ?x1823) 0.0)) (or $x1837 $x2659 $x6957) (or $x2199 (<= (+ ?x1832 ?x2823 S_3 (* (- 3.0) S_2)) 0.0)) (or $x3413 (<= (+ L_1 ?x1118 S_3 ?x1827 ?x1826 ?x1828 ?x1829) 0.0) $x6957) (or $x6957 (<= (+ A_0 S_3 ?x1833 L_3 ?x1010 ?x1059) 0.0)) (or $x903 $x2560 $x4376 $x13211) $x261697 (or $x2560 (<= (+ L_1 ?x1118 S_3 ?x1827 ?x1826 ?x1828 ?x1829) 0.0) $x6957) (or $x2197 $x2560 $x4646) (or $x3024 $x6105 $x6957) (or $x2659 (<= (+ ?x1135 ?x1809 L_0 ?x7365) 0.0)) (or $x2659 (not $x8696) (<= (+ ?x2319 ?x4380 S_4 ?x8688) 0.0)) (or $x2659 $x8696 (<= (+ A_0 ?x1001 S_4 (* (- 2.0) S_3)) 0.0)) (or $x2659 $x6105 $x6957) (or $x3413 $x6105 $x6957) (or $x2211 $x2560 $x6105 (not $x25779)) $x190016 (or $x2211 $x3413 (<= (+ ?x1135 L_0 S_2 ?x2319 ?x1810 ?x4380 ?x1813) 0.0)) (or $x2560 (<= (+ ?x2653 ?x2654 ?x17947 S_2) 0.0)) (or $x2199 $x6105 $x6957) (or $x2199 (<= (+ ?x8493 ?x11435 S_4 (* (- 4.0) S_2)) 0.0)) (or $x2211 $x2560 $x5134 (not $x25779)) (or (<= (+ ?x1135 L_0 S_3 ?x1817 ?x1818 ?x1819 ?x1820) 0.0) $x3024 $x6957) (or (<= (+ ?x1010 ?x1810 ?x1028 A_1 ?x1813 A_3) 0.0) $x2211 $x3024) (or $x2560 $x5712 $x6957 $x22970) (or $x1668 (<= (+ ?x1010 L_3) 0.0) $x2560 $x4646 (not $x6957) $x21734) $x190991 (or $x2659 $x4646 (<= (+ ?x29400 (* (- (/ 1.0 4.0)) A_0) ?x36467 S_3) 0.0)) (or $x2197 $x2659 $x4646) (or (<= (+ ?x1010 ?x1810 ?x1028 A_1 ?x1813 A_3) 0.0) $x2211 $x2560) (or (<= (+ ?x1010 ?x1810 ?x1028 A_1 ?x1813 A_3) 0.0) $x2211 $x3413) (or (<= (+ ?x1135 L_0 S_3 ?x1817 ?x1818 ?x1819 ?x1820) 0.0) $x3413 $x6957) (or (<= (+ ?x1135 L_0 S_2 ?x1826 ?x1827 ?x1828 ?x1829) 0.0) $x2659 $x6957) (or $x903 $x1840 $x2659 $x4407 $x6957) (or $x2659 $x5697 $x6957) (or $x2211 $x2659 $x5086) (or $x2560 $x5134 $x6957) (or $x2203 $x3024 $x23896) $x34736 (or $x2197 $x3024) (or $x2560 $x6105 $x6957) (or $x3024 $x5697 $x6957) (or $x3024 (<= (+ L_1 ?x1118 S_3 ?x1827 ?x1826 ?x1828 ?x1829) 0.0) $x6957) (or $x1668 $x2211 $x3413 $x4646 $x8504) (or $x903 $x3413 $x5646 $x6957) (or $x1668 $x2211 $x2560 $x4646 $x43067) $x503340 (or $x2203 $x2659 $x4646 $x23896) (or $x1232 $x2659 $x6957) (or $x1668 $x2211 $x2659 $x4646 $x5691) (or $x1668 $x2211 $x3024 $x5691) (or $x1668 $x2211 $x3413 $x4646 $x5712) (or $x1668 $x2199 $x2211 $x4646) (or $x2211 $x3413 $x4646 (not $x5712) $x5691) (or $x2199 (<= (+ ?x1238 L_2 S_3 A_0 ?x1823 ?x1001) 0.0)) $x57313 (or $x2199 $x2211 $x5134 (not $x25779)) (or $x2199 $x2211 $x24168) (or $x2211 $x2560 $x24168) (or $x903 $x2560 $x5646 $x6957 $x25779) $x60229 (or $x2560 (<= (+ (* (- (/ 2.0 3.0)) S_4) ?x12159 ?x12203 S_2) 0.0)) (or $x2560 $x6957 $x40235) (or $x2560 $x5697 $x6957) (or $x2211 $x2560 $x4384) (or $x2211 $x2560 (<= (+ ?x1135 L_0 S_2 ?x2319 ?x1810 ?x4380 ?x1813) 0.0)) (or $x2199 $x2211 $x4384) (or (<= (+ ?x1135 L_0 S_2 ?x1826 ?x1827 ?x1828 ?x1829) 0.0) $x3024 $x6957) (or (<= (+ ?x1135 L_0 S_4 ?x1803 ?x1804 ?x1805 ?x1806) 0.0) $x3024 $x6957) (or $x903 $x1840 $x2199 $x6957 $x25779) (or $x2199 $x2211 $x65008) (or $x903 $x1864 $x2560 $x13211) (or $x903 $x2560 $x13211 $x39032) (or $x3413 $x4646 (<= (+ ?x29400 (* (- (/ 1.0 4.0)) A_0) ?x36467 S_3) 0.0)) (or $x2197 $x3413 $x4646) (or $x2659 $x8696 (<= (+ S_5 L_3 ?x1059 A_0 ?x1809 ?x1001) 0.0)) (or $x1837 $x3024 $x6957) (or $x2211 $x3413 $x5134 (not $x25779)) (or $x3024 $x9325 $x29143) (or $x3024 $x17580 $x29143) (or $x2211 $x3413 $x21705) $x53076 (or $x3413 $x5697 $x6957) (or $x903 $x3024 $x5646 $x6957 $x25779) (or $x2199 $x81740) $x235690 (or $x2659 $x17419 (<= (+ L_3 ?x1059 S_4 ?x1010 A_1 ?x1809) 0.0)) (or $x903 $x2199 $x18502 $x62335) (or $x2659 $x6957 $x20260) (or $x903 $x1840 $x2659 $x6957 $x25779) (or $x3024 $x5712 $x6957 $x33764) (or $x3024 $x5712 $x6957 $x37632) (or $x3024 $x5712 $x6957 $x22970) (or $x3024 $x5712 $x6957 $x20260) (or $x903 $x1840 $x3024 $x6957 $x25779) (or $x3024 $x6957 $x40235) (or $x2659 $x6957 $x40235) (or $x2199 $x5712 $x6957 $x22970) (or $x2659 $x6957 $x33764) (or $x2199 $x5712 $x6957 $x33764) $x235388 (or $x3413 $x5712 $x6957 $x22970) (or $x3413 $x6957 $x40235) (or $x2211 $x2659 (<= (+ ?x1135 L_0 S_2 ?x2319 ?x1810 ?x4380 ?x1813) 0.0)) (or $x2211 $x3024 (<= (+ ?x1135 L_0 S_2 ?x2319 ?x1810 ?x4380 ?x1813) 0.0)) (or $x903 $x1840 $x3413 $x6957 $x25779) (or $x2199 $x2211 $x21705) (or $x2211 $x3413 $x68423) (or $x2211 $x2659 $x9578 $x65008) (or $x2211 $x3024 $x9578 $x65008) (or $x903 $x1864 $x3024 $x22153) (or $x903 $x2659 $x5646 $x6957 $x25779) (or (<= (+ ?x1135 L_0 S_2 ?x1826 ?x1827 ?x1828 ?x1829) 0.0) $x3413 $x6957) (or $x2560 $x4646 $x29143) $x257614 (or $x2199 $x4646 (<= (+ ?x1238 L_2 ?x1794 (* 2.0 S_3)) 0.0)) $x235324 (or $x2659 $x6957 $x33946) (or $x2199 $x2211 $x5086) (or $x2211 $x2560 $x5086) (or $x2211 $x2659 $x68423) (or $x2199 $x2211 $x68423) (or $x903 $x1840 $x2560 $x6957 $x25779) $x228812 (or $x2211 $x2659 $x21705) $x253970 $x526009 (or $x2560 $x5712 $x6957 $x33764) (or $x2560 $x5712 $x6957 $x20260) (or $x2199 $x5712 $x6957 $x37632) (or $x2659 $x6957 $x37632) (or $x2659 $x8696 (<= (+ ?x1827 ?x1829 ?x11326 A_0 ?x1809 ?x1001) 0.0)) $x245236 $x521842 $x239156 (or $x2659 $x6957 $x10198) (or $x2560 $x5712 $x6957 $x10198) (or $x2211 $x2659 $x4384) (or (<= (+ ?x1010 L_3) 0.0) $x2560 $x4646 (not $x6957) $x35905) (or $x2659 $x4646 $x11661 $x35905) (or $x2659 $x4646 $x12221 $x17580) $x237061 (or $x2211 $x3413 $x24168) (or $x2199 $x2211 $x4301) (or $x2560 $x4646 (<= (+ ?x29400 (* (- (/ 1.0 4.0)) A_0) ?x36467 S_3) 0.0)) (or $x903 $x2199 $x4646 $x38769 $x40138) (or $x2199 $x5712 $x6957 $x10198) (or $x2199 $x5712 $x6957 $x20260) (or $x2560 $x4646 $x35905 $x110347) (or $x2199 $x4646 (<= (+ ?x29400 (* (- (/ 1.0 4.0)) A_0) ?x36467 S_3) 0.0)) (or (<= (+ ?x1135 L_0 S_3 ?x1817 ?x1818 ?x1819 ?x1820) 0.0) $x2199 $x6957) (or $x2199 (<= (+ ?x1010 L_3) 0.0) $x4646 (not $x6957) $x11661 $x35905) (or $x903 $x3024 $x38769 $x40138) (or $x903 $x2560 $x4376 $x45234) (or $x2211 $x3024 $x24168) (or $x2199 $x2211 $x4879) (or $x3413 $x5712 $x6957 $x33946) (or $x2659 $x4646 $x9325 $x29143) $x216896 $x217150 (or $x2211 $x2659 $x4879) (or $x2211 $x2659 $x97626) (or $x2211 $x3024 $x97626) (or $x2211 $x3024 $x4384) $x499092 $x220407 (or $x2659 (not $x9580) (<= (+ ?x9539 ?x9529 ?x9498 ?x1010 A_1 ?x1809) 0.0)) (or $x2211 $x2659 (<= (+ ?x9539 ?x9529 ?x9498 ?x1010 A_1 L_2 ?x1238) 0.0)) (or $x3024 (<= (+ ?x1238 L_2 ?x1794 (* 2.0 S_3)) 0.0)) (or $x903 $x1864 $x3024 $x52076) (or $x3024 (<= (+ ?x29400 (* (- (/ 1.0 4.0)) A_0) ?x36467 S_3) 0.0)) $x216829 (or $x3024 $x11661 $x35905 $x110347) $x132079 (or $x2211 $x3024 $x21705) (or $x2203 $x2560 $x4646) (or $x2203 $x3413 $x4646 $x23896) (or $x903 $x2211 $x2580 $x2659 $x8696 $x96895) $x205592 (or $x2211 $x3413 $x5086) (or $x2199 $x2211 (<= (+ ?x9539 ?x9529 ?x9498 ?x1010 A_1 L_2 ?x1238) 0.0)) (or $x2199 $x2211 $x73394) (or $x903 $x2199 $x2211 $x2580 $x96895) $x259301 (or $x2211 $x3413 (<= (+ ?x9539 ?x9529 ?x9498 ?x1010 A_1 L_2 ?x1238) 0.0)) (or $x2211 $x3413 $x9578 $x65008) $x500372 (or $x903 $x2659 $x4312 $x4646 $x38769) (or $x2199 $x2211 $x64980) (or $x903 $x1864 $x2560 $x4646 $x52076) (or $x2211 $x3413 $x8504 $x69901) (or $x2560 $x5712 $x6957 $x33946) (or $x2211 $x2560 $x7391) (or $x2199 $x5712 $x6957 $x33946) (or $x3413 $x5712 $x6957 $x37632) (or $x2211 $x3024 $x68423) (or $x2211 $x2659 $x9578 $x97086) $x500270 (or $x903 $x1864 $x2560 $x4646 $x38769) (or $x2199 $x2211 $x97086) $x235339 (or $x903 $x2659 $x4371 $x4646 $x9325 $x27388) $x237752 (or $x2199 $x5134 $x6957) $x249139 $x498959 (or $x2199 $x4646 $x11661 $x35905 $x110347) $x522027 (or $x3413 $x4646 $x9325 $x29143) (or $x903 $x1864 $x2199 $x4646 $x52076) (or $x2560 $x4646 $x110395) (or $x2659 $x5134 $x6957) (or $x3413 $x5134 $x6957) (or $x903 $x2211 $x3413 $x4405 $x9578 $x96895) (or $x2211 $x3413 $x9578 $x98842) (or $x2211 $x3413 $x9578 $x73394) (or $x2211 $x3413 $x9578 $x97086) (or $x2211 $x3024 $x29797 $x50869) (or $x903 $x4312 $x8696 $x62986) (or $x2211 $x2659 $x7391) $x243564 (or $x2211 $x3413 $x7391) $x219033 (or $x903 $x2199 $x4371 $x4646 $x11324 $x21704 $x27388) (or $x2199 $x2211 $x97626) $x220305 $x224309 $x499677 (or $x903 $x2659 $x4646 $x38769 $x40138) (or $x903 $x2560 $x4646 $x38769 $x40138) (or $x903 $x1864 $x3413 $x4646 $x52076) $x218617 $x216839 $x254221 (or $x2211 $x2560 (<= (+ ?x1010 A_1 ?x9539 ?x2650 ?x17799 ?x17999 ?x2655) 0.0)) (or $x2560 $x6957 (<= (+ ?x2653 ?x2654 ?x9539 ?x1826 ?x1827 ?x1828 ?x1829) 0.0)) (or $x3413 $x6957 (<= (+ ?x2653 ?x2654 ?x9539 ?x1826 ?x1827 ?x1828 ?x1829) 0.0)) $x135501 (or $x903 $x2103 $x2240 $x2560 $x4646 $x11364) (or $x2211 $x3024 (<= (+ ?x1010 A_1 ?x9539 ?x2650 ?x17799 ?x17999 ?x2655) 0.0)) $x511271 (or $x903 $x1864 $x2236 $x2560 $x4646) (or $x2659 $x6957 (<= (+ ?x2653 ?x2654 ?x9539 ?x1826 ?x1827 ?x1828 ?x1829) 0.0)) (or $x3413 $x6957 $x34000 $x47194 $x57702) (or $x903 $x2236 $x2659 $x4646 $x52031 $x100108) (or $x903 $x2659 $x4312 $x4646 $x52076) (or $x2211 $x3413 $x4879) (or $x2211 $x2659 $x9578 $x73394) (or $x903 $x2211 $x2659 $x4312 $x9578 $x96895) (or $x2211 $x2659 $x9578 $x98842) (or $x3413 $x5712 $x6957 $x20260) (or $x903 $x2580 $x3024 $x22153) (or $x3413 $x6957 $x12683 $x46614 $x49231) $x497609 $x221330 (or $x903 $x2236 $x3413 $x4646 $x100108) (or $x903 $x2659 $x4371 $x4646 $x8874 $x21704 $x27388) (or $x903 $x2240 $x3413 $x4405 $x4646 $x8874) $x527371 (or $x903 $x3413 $x4405 $x4646 $x11324 $x27388) (or $x903 $x2560 $x4407 $x4646 $x27388) (or $x903 $x2560 $x4371 $x4646 $x27388) $x226388 $x513607 (or $x2211 $x3024 $x9578 $x97086) (or $x903 $x2659 $x4371 $x4646 $x11324 $x21704 $x27388) (or $x903 $x3413 $x4371 $x4646 $x11324 $x21704 $x27388) (or $x903 $x2240 $x2659 $x4312 $x4646 $x8874) $x220087 (or $x2211 $x3024 $x9578 $x98842) (or $x3413 $x5712 $x6957 $x10198) (or $x903 $x2211 $x2580 $x3413 $x21734 $x96895) (or $x903 $x2211 $x2580 $x3024 $x9578 $x96895) $x215223 $x221235 (or $x2199 $x4646 $x9325 $x29143) $x521476 (or $x903 $x2580 $x2659 $x4329 $x140728) $x229504 (or $x903 $x2659 $x4312 $x86016 $x140728) (or $x903 $x2560 $x5692 $x5712 $x29855 $x47735 $x62842) (or $x903 $x3024 $x4371 $x8874 $x21704 $x27388) (or $x903 $x1864 $x2560 $x28240 $x62842 $x111620) $x243377 (or $x2199 $x4646 $x12221 $x17580) (or $x903 $x3024 $x22153 (not $x35132)) (or $x903 $x3024 $x4371 $x11324 $x21704 $x27388) (or $x903 $x2560 $x25779 $x25830 $x29855 $x62842) (or $x903 $x2560 $x25779 $x39032 $x62842 $x111620) (or $x903 $x2560 $x28240 $x29855 $x62842 $x111620) (or $x903 $x2236 $x3024 $x52031 $x100108) (or $x903 $x3413 $x4646 $x38769 $x40138) (or $x3413 $x4646 $x110395) (or $x903 (not $x2246) $x2240 $x3024 $x8874) (<= (+ S_0 L_0 ?x1135) 0.0) (<= (+ ?x1833 S_0) 0.0) (<= (+ L_1 ?x1118 S_1) 0.0) (<= (+ ?x1238 L_2 S_2) 0.0) (<= (+ ?x1794 S_4) 0.0) (<= (+ S_5 ?x1297 L_3) 0.0) (<= (+ (* (- 1.0) A_4) L_3 S_4) 0.0) (<= (+ L_3 ?x1059 S_3) 0.0) (<= (+ ?x1809 S_2) 0.0) (<= (+ (* (- 2.0) S_2) ?x7365) 0.0) (<= (+ ?x1795 S_3) 0.0)))))))))))))))))))))))))))))))))))))))))))))))))))))))))))))))))))))))))))))))))))))))))))))))))))))))))))))))))))))))))))))))))))))))))))))))))))))))))))))))))))))))))))))))))))))))))))))))))))))))))))))))))))))))))))))))))))))))))))))))))))))))))))))))))))))))))))))))))))))))))))))))))))))))))))))))))))))))))))))))))))))))))))))))))))))))))))))
(check-sat)
